TYPE : Vertex Cover
DIMENSION: 31
EDGE_DATA_SECTION:
0 5
0 6
0 12
0 19
1 5
1 8
1 11
1 13
1 17
1 24
1 25
1 26
1 28
2 7
2 15
2 16
2 17
2 18
2 19
2 22
2 25
2 27
3 9
3 10
3 12
3 15
3 21
3 30
4 6
4 8
4 9
4 10
4 14
4 19
4 27
4 29
5 6
5 7
5 10
5 12
5 14
5 15
5 17
5 21
5 24
5 28
5 30
6 7
6 8
6 10
6 12
6 18
6 22
6 23
6 25
6 26
6 29
7 8
7 11
7 12
7 16
7 17
7 22
7 26
8 9
8 11
8 13
8 21
8 28
9 10
9 11
9 13
9 14
9 20
9 25
9 28
10 23
11 12
11 17
11 23
11 24
12 16
12 22
12 23
12 25
12 27
13 15
13 17
13 22
13 24
13 25
13 28
14 22
14 26
15 20
15 24
15 25
15 27
15 29
16 19
16 24
16 30
17 19
17 21
17 22
17 24
18 23
18 24
18 25
18 28
18 29
19 22
19 25
20 23
20 27
21 22
21 28
22 24
22 28
23 24
23 27
24 25
24 26
24 29
25 27
25 28
26 27
26 29
27 28
28 29
29 30
-1
VERTEX_DEGREE:
4.0 9.0 9.0 6.0 8.0 13.0 13.0 10.0 9.0 10.0 6.0 8.0 11.0 9.0 5.0 9.0 6.0 10.0 7.0 7.0 4.0 6.0 11.0 8.0 13.0 12.0 7.0 9.0 11.0 8.0 4.0
VERTEX_COVER:
1 2 3 4 5 6 8 9 11 12 15 16 17 19 22 23 24 25 26 27 28 29
EOF
